695796
7,210,183,20,117,26,22,89,107,196,179,192,37,34,28,151,50,108,94,35,87,229,133,155,112,27,169,40,81,130,102,62,55,78,215,75,205,161,116,184,101,166,68,9,96,91,144,145,211,156,5,64,44,176,223,6,203,38,224,33,129,153,217,21,4,142,170,90,150,171,186,109,228,88,146,12,187,103,82,158,180,121,77,41,106,219,66,190,99,202,105,175,54,56,18,92,53,100,216,24,141,128,222,149,115,2,204,172,168,230,104,212,45,93,213,221,59,58,139,76,57,52,132,80,25,123,61,182,148,131,173,124,181,188,85,167,79,95,84,29,174,11,143,197,46,214,164,154,65,14,110,165,194,227,125,19,134,111,48,225,47,17,13,220,30,137,60,138,15,8,120,97,201,10,200,198,114,119,193,195,136,206,218,209,73,126,70,86,191,152,122,160,113,42,98,51,177,226,69,23,159,208,3,185,189,16,163,147,127,178,199,31,43,207,39,67,74,157,83,135,140,71,49,118,32,63,72,1,162,36,7